
Gurobi 11.0.3 (linux64) logging started Mon Dec 15 16:28:14 2025

Set parameter LogFile to value "./log/train/IS_1200_5/IS_1.lp.log"
Set parameter TimeLimit to value 3600
Gurobi Optimizer version 11.0.3 build v11.0.3rc0 (linux64 - "Ubuntu 22.04.5 LTS")

CPU model: AMD Ryzen 9 9900X 12-Core Processor, instruction set [SSE2|AVX|AVX2|AVX512]
Thread count: 12 physical cores, 24 logical processors, using up to 24 threads

Optimize a model with 6211 rows, 1200 columns and 12162 nonzeros
Model fingerprint: 0x97280955
Variable types: 0 continuous, 1200 integer (1200 binary)
Coefficient statistics:
  Matrix range     [1e+00, 1e+00]
  Objective range  [1e+00, 1e+00]
  Bounds range     [1e+00, 1e+00]
  RHS range        [1e+00, 1e+00]
Found heuristic solution: objective 307.0000000
Presolve removed 1199 rows and 0 columns
Presolve time: 0.01s
Presolved: 5012 rows, 1200 columns, 10912 nonzeros
Variable types: 0 continuous, 1200 integer (1200 binary)

Root relaxation: objective 5.592500e+02, 2902 iterations, 0.07 seconds (0.13 work units)

    Nodes    |    Current Node    |     Objective Bounds      |     Work
 Expl Unexpl |  Obj  Depth IntInf | Incumbent    BestBd   Gap | It/Node Time

     0     0  559.25000    0 1102  307.00000  559.25000  82.2%     -    0s
H    0     0                     455.0000000  559.25000  22.9%     -    0s
H    0     0                     475.0000000  559.25000  17.7%     -    0s
     0     0  548.13161    0 1184  475.00000  548.13161  15.4%     -    0s
H    0     0                     480.0000000  548.13161  14.2%     -    0s
H    0     0                     486.0000000  548.13161  12.8%     -    0s
     0     0  543.07474    0 1182  486.00000  543.07474  11.7%     -    0s
H    0     0                     487.0000000  542.87410  11.5%     -    0s
     0     0  542.87410    0 1185  487.00000  542.87410  11.5%     -    0s
     0     0  542.84396    0 1182  487.00000  542.84396  11.5%     -    1s
     0     0  542.84058    0 1184  487.00000  542.84058  11.5%     -    1s
     0     0  539.62882    0 1189  487.00000  539.62882  10.8%     -    1s
     0     0  539.34426    0 1186  487.00000  539.34426  10.7%     -    1s
     0     0  539.31649    0 1185  487.00000  539.31649  10.7%     -    1s
     0     0  539.30780    0 1185  487.00000  539.30780  10.7%     -    1s
     0     0  539.30513    0 1186  487.00000  539.30513  10.7%     -    1s
     0     0  537.28670    0 1188  487.00000  537.28670  10.3%     -    1s
     0     0  537.15351    0 1184  487.00000  537.15351  10.3%     -    1s
     0     0  537.13400    0 1185  487.00000  537.13400  10.3%     -    1s
     0     0  537.11831    0 1185  487.00000  537.11831  10.3%     -    1s
     0     0  537.11620    0 1185  487.00000  537.11620  10.3%     -    1s
     0     0  535.51064    0 1186  487.00000  535.51064  10.0%     -    2s
     0     0  535.36957    0 1188  487.00000  535.36957  9.93%     -    2s
     0     0  535.34943    0 1189  487.00000  535.34943  9.93%     -    2s
     0     0  535.33852    0 1188  487.00000  535.33852  9.93%     -    2s
     0     0  535.33801    0 1189  487.00000  535.33801  9.93%     -    2s
     0     0  534.34248    0 1190  487.00000  534.34248  9.72%     -    2s
     0     0  534.22502    0 1188  487.00000  534.22502  9.70%     -    2s
     0     0  534.16040    0 1188  487.00000  534.16040  9.68%     -    2s
     0     0  534.15111    0 1188  487.00000  534.15111  9.68%     -    2s
     0     0  534.14927    0 1188  487.00000  534.14927  9.68%     -    2s
     0     0  533.00630    0 1188  487.00000  533.00630  9.45%     -    2s
     0     0  532.88500    0 1192  487.00000  532.88500  9.42%     -    3s
     0     0  532.83799    0 1192  487.00000  532.83799  9.41%     -    3s
     0     0  532.82943    0 1192  487.00000  532.82943  9.41%     -    3s
     0     0  532.12195    0 1192  487.00000  532.12195  9.27%     -    3s
     0     0  532.05626    0 1189  487.00000  532.05626  9.25%     -    3s
     0     0  532.04626    0 1190  487.00000  532.04626  9.25%     -    3s
     0     0  531.19067    0 1189  487.00000  531.19067  9.07%     -    3s
     0     0  531.07158    0 1189  487.00000  531.07158  9.05%     -    3s
     0     0  531.03019    0 1189  487.00000  531.03019  9.04%     -    3s
     0     0  531.02420    0 1189  487.00000  531.02420  9.04%     -    3s
     0     0  530.60071    0 1189  487.00000  530.60071  8.95%     -    3s
     0     0  530.52369    0 1189  487.00000  530.52369  8.94%     -    3s
     0     0  530.51831    0 1190  487.00000  530.51831  8.94%     -    3s
     0     0  529.68368    0 1189  487.00000  529.68368  8.76%     -    4s
     0     0  529.57925    0 1189  487.00000  529.57925  8.74%     -    4s
     0     0  529.56427    0 1189  487.00000  529.56427  8.74%     -    4s
     0     0  529.56172    0 1189  487.00000  529.56172  8.74%     -    4s
H    0     0                     489.0000000  529.11772  8.20%     -    4s
     0     0  529.11772    0 1189  489.00000  529.11772  8.20%     -    4s
     0     0  529.04747    0 1189  489.00000  529.04747  8.19%     -    4s
     0     0  529.03749    0 1189  489.00000  529.03749  8.19%     -    4s
H    0     0                     490.0000000  529.03749  7.97%     -    4s
     0     0  528.59958    0 1185  490.00000  528.59958  7.88%     -    4s
     0     0  528.55036    0 1188  490.00000  528.55036  7.87%     -    4s
H    0     0                     492.0000000  528.53644  7.43%     -    4s
     0     0  528.53644    0 1188  492.00000  528.53644  7.43%     -    4s
     0     0  528.53183    0 1189  492.00000  528.53183  7.43%     -    4s
     0     0  528.27847    0 1189  492.00000  528.27847  7.37%     -    5s
